NAME : my10
COMMENT : my instance to test
TYPE : TSP
DIMENSION : 10
EDGE_WEIGHT_TYPE : EUC_2D
LOWER_BOUND : 42.18950342368858
NODE_COORD_SECTION
    1    5    5
    2    0    4
    3    2    0
    4    5    1
    5   10    1
    6    2    8
    7    6   10
    8    7    7
    9   10    6
   10    9    9
EOF
